(declare-fun x1 () Int)
(declare-fun x2 () Int)

; (((15*x2)<(2*(((x1+1)*7)-1)))&&(((15*x2)/30)<((2*(((x1+1)*7)-1))/30)))

(assert (not (=> 
  (exists ((y Int)) (and (
    <= (* 5 (/ (* 3 y) 7)) x1
  ) (
    > (* 2 y) x2
  )))
  
  (and (
    < (* 15 x2) (* 2 (- (* (+ x1 1) 7) 1))
  ) (
    < (/ (* 15 x2) 30) (/ (* 2 (- (* (+ x1 1) 7) 1)) 30)
  ))
)))
(check-sat)